
  32    4
  10   10   10   10

   0   0   0   0   0   3 2 5 12 
   9  10  10  10  10   3 19 16 3 
   2  10  10  10  10   4 20 11 8 4 
   4  10  10  10  10   1 6 
   8  10  10  10  10   3 31 16 9 
   7  10  10  10  10   1 7 
   5  10  10  10  10   2 31 9 
   8  10  10  10  10   2 31 9 
   9  10  10  10  10   1 10 
   1  10  10  10  10   3 30 29 13 
   3  10  10  10  10   1 13 
   2  10  10  10  10   1 13 
   9  10  10  10  10   1 14 
   4  10  10  10  10   4 28 27 21 15 
   8  10  10  10  10   1 17 
   4  10  10  10  10   1 17 
   5  10  10  10  10   1 18 
   7  10  10  10  10   3 26 25 22 
   1  10  10  10  10   2 26 22 
   5  10  10  10  10   2 25 23 
   5  10  10  10  10   2 25 24 
   5  10  10  10  10   1 23 
   7  10  10  10  10   1 24 
   4  10  10  10  10   1 32
   3  10  10  10  10   1 32
   8  10  10  10  10   1 32
   9  10  10  10  10   1 32
   5  10  10  10  10   1 32
   6  10  10  10  10   1 32
   3  10  10  10  10   1 32
   4  10  10  10  10   1 32
   0   0   0   0   0   0 
